language ESSENCE' 1.0
$ loaded file: carseqdata/csplib-instance-21
letting numcars=200
letting numclasses=22
letting numoptions=5
letting optMax=[1, 2, 1, 2, 1]
letting windowSize=[2, 3, 3, 5, 5]
letting numberPerClass=[2, 3, 5, 3, 24, 2, 2, 2, 1, 32, 44, 2, 4, 6, 1, 1, 1, 53, 1, 1, 8, 2]
letting optionsRequired=[[1, 0, 1, 1, 0], [1, 0, 0, 0, 1], [1, 1, 0, 0, 0], [1, 1, 1, 0, 0], [0, 0, 0, 0, 1], [1, 1, 0, 0, 1], [1, 1, 0, 1, 0], [0, 1, 0, 1, 0], [1, 0, 1, 0, 1], [0, 0, 1, 0, 0], [0, 0, 0, 1, 0], [0, 1, 1, 0, 1], [0, 0, 1, 1, 0], [1, 0, 1, 0, 0], [1, 0, 0, 1, 1], [0, 0, 1, 1, 1], [0, 0, 0, 1, 1], [0, 1, 0, 0, 0], [0, 1, 1, 0, 0], [0, 1, 0, 0, 1], [1, 0, 0, 0, 0], [1, 0, 0, 1, 0]]
